solution status: optimal solution found
objective value:                                    5
$_23__2_y                                          25 	(obj:0)
$_23__2_z                                          19 	(obj:0)
$_236_y                                            18 	(obj:0)
$_236_z                                            16 	(obj:0)
$_19__2_y                                          25 	(obj:0)
$_19__2_z                                          21 	(obj:0)
$_154_y                                            19 	(obj:0)
$_154_z                                            21 	(obj:0)
$_125_y                                            19 	(obj:0)
$_125_z                                            18 	(obj:0)
$_128_y                                            19 	(obj:0)
$_128_z                                            17 	(obj:0)
$_121_y                                            21 	(obj:0)
$_121_z                                            19 	(obj:0)
$_20__2_y                                         -12 	(obj:0)
$_20__2_z                                          25 	(obj:0)
$_132_y                                            16 	(obj:0)
$_132_z                                            15 	(obj:0)
$_195_y                                            20 	(obj:0)
$_195_z                                            19 	(obj:0)
$_135_y                                            16 	(obj:0)
$_135_z                                            17 	(obj:0)
$_162_y                                            20 	(obj:0)
$_162_z                                            22 	(obj:0)
$_43_y                                             19 	(obj:0)
$_43_z                                             22 	(obj:0)
$_65_y                                             17 	(obj:0)
$_65_z                                             16 	(obj:0)
$_18__2_y                                          25 	(obj:0)
$_18__2_z                                           7 	(obj:0)
$_244_y                                            18 	(obj:0)
$_244_z                                            17 	(obj:0)
$_111_y                                            19 	(obj:0)
$_111_z                                            25 	(obj:0)
$_114_y                                            20 	(obj:0)
$_114_z                                            23 	(obj:0)
$_75_y                                             19 	(obj:0)
$_75_z                                             23 	(obj:0)
$_21__2_y                                          25 	(obj:0)
$_21__2_z                                          15 	(obj:0)
$_203_y                                            19 	(obj:0)
$_203_z                                            19 	(obj:0)
$_81_y                                             19 	(obj:0)
$_81_z                                             24 	(obj:0)
$_25__2_y                                          17 	(obj:0)
$_25__2_z                                          15 	(obj:0)
$_118_y                                            19 	(obj:0)
$_118_z                                            20 	(obj:0)
$_74_y                                             16 	(obj:0)
$_74_z                                             16 	(obj:0)
$_24__2_y                                          22 	(obj:0)
$_24__2_z                                          25 	(obj:0)
$_80_y                                             16 	(obj:0)
$_80_z                                             14 	(obj:0)
$_22__2_y                                          25 	(obj:0)
$_22__2_z                                          20 	(obj:0)
x82                                                 1 	(obj:1)
x86                                                 1 	(obj:1)
x88                                                 1 	(obj:1)
x97                                                 1 	(obj:1)
x98                                                 1 	(obj:1)
